\ LP format - for model browsing. Use MPS format to capture full model detail.
Minimize
  0 b_1_t_0 + 0 x_1 + 0 x_2 + 0 y_0 + 0 y_1 + 0 y_2 + 0 y_3 + 0 y_4
   + 0 b_2_t_0 + 0 x_0 + 0 x_3
Subject To
 R0: b_t_0 = 1
 R1: 2 b_1_1_t_0 - b_1_1_1_t_1 - b_1_1_1_t_2 <= 0
 R2: - b_1_1_t_0 + b_1_1_1_t_1 + b_1_1_1_t_2 <= 1
 R3: 5 b_1_2_t_0 - b_1_2_1_t_0 - b_1_2_1_t_1 - b_1_2_1_t_2 - b_1_2_1_t_3
   - b_1_2_1_t_4 <= 0
 R4: - b_1_2_t_0 + b_1_2_1_t_0 + b_1_2_1_t_1 + b_1_2_1_t_2 + b_1_2_1_t_3
   + b_1_2_1_t_4 <= 4
 R5: 4 b_2_1_t_0 - b_2_1_1_t_0 - b_2_1_1_t_1 - b_2_1_1_t_2 - b_2_1_1_t_3
   <= 0
 R6: - b_2_1_t_0 + b_2_1_1_t_0 + b_2_1_1_t_1 + b_2_1_1_t_2 + b_2_1_1_t_3
   <= 3
 R7: b_2_2_t_0 - b_2_2_1_t_1 - b_2_2_1_t_2 - b_2_2_1_t_3 - b_2_2_1_t_4
   <= 0
 R8: - 4 b_2_2_t_0 + b_2_2_1_t_1 + b_2_2_1_t_2 + b_2_2_1_t_3 + b_2_2_1_t_4
   <= 0
 GC0: b_1_1_1_t_1 = 1 -> x_1 <= 3.9999
 GC1: b_1_1_1_t_1 = 0 -> x_1 >= 4
 GC2: b_1_1_1_t_2 = 1 -> x_2 <= 3.9999
 GC3: b_1_1_1_t_2 = 0 -> x_2 >= 4
 GC4: b_1_2_1_t_0 = 1 -> - y_0 <= -1
 GC5: b_1_2_1_t_0 = 0 -> - y_0 >= -0.9999
 GC6: b_1_2_1_t_1 = 1 -> - y_1 <= -1
 GC7: b_1_2_1_t_1 = 0 -> - y_1 >= -0.9999
 GC8: b_1_2_1_t_2 = 1 -> - y_2 <= -1
 GC9: b_1_2_1_t_2 = 0 -> - y_2 >= -0.9999
 GC10: b_1_2_1_t_3 = 1 -> - y_3 <= -1
 GC11: b_1_2_1_t_3 = 0 -> - y_3 >= -0.9999
 GC12: b_1_2_1_t_4 = 1 -> - y_4 <= -1
 GC13: b_1_2_1_t_4 = 0 -> - y_4 >= -0.9999
 GC15: b_2_1_1_t_0 = 1 -> - x_0 <= -5
 GC16: b_2_1_1_t_0 = 0 -> - x_0 >= -4.9999
 GC17: b_2_1_1_t_1 = 1 -> - x_1 <= -5
 GC18: b_2_1_1_t_1 = 0 -> - x_1 >= -4.9999
 GC19: b_2_1_1_t_2 = 1 -> - x_2 <= -5
 GC20: b_2_1_1_t_2 = 0 -> - x_2 >= -4.9999
 GC21: b_2_1_1_t_3 = 1 -> - x_3 <= -5
 GC22: b_2_1_1_t_3 = 0 -> - x_3 >= -4.9999
 GC23: b_2_2_1_t_1 = 1 -> y_1 <= 1.9999
 GC24: b_2_2_1_t_1 = 0 -> y_1 >= 2
 GC25: b_2_2_1_t_2 = 1 -> y_2 <= 1.9999
 GC26: b_2_2_1_t_2 = 0 -> y_2 >= 2
 GC27: b_2_2_1_t_3 = 1 -> y_3 <= 1.9999
 GC28: b_2_2_1_t_3 = 0 -> y_3 >= 2
 GC29: b_2_2_1_t_4 = 1 -> y_4 <= 1.9999
 GC30: b_2_2_1_t_4 = 0 -> y_4 >= 2
Bounds
 -10000 <= x_1 <= 10000
 -10000 <= x_2 <= 10000
 -10000 <= y_0 <= 10000
 -10000 <= y_1 <= 10000
 -10000 <= y_2 <= 10000
 -10000 <= y_3 <= 10000
 -10000 <= y_4 <= 10000
 -10000 <= x_0 <= 10000
 -10000 <= x_3 <= 10000
Binaries
 b_t_0 b_1_t_0 b_1_1_t_0 b_1_1_1_t_1 b_1_1_1_t_2 b_1_2_t_0 b_1_2_1_t_0
 b_1_2_1_t_1 b_1_2_1_t_2 b_1_2_1_t_3 b_1_2_1_t_4 b_2_t_0 b_2_1_t_0
 b_2_1_1_t_0 b_2_1_1_t_1 b_2_1_1_t_2 b_2_1_1_t_3 b_2_2_t_0 b_2_2_1_t_1
 b_2_2_1_t_2 b_2_2_1_t_3 b_2_2_1_t_4
General Constraints
 GC14: b_1_t_0 = OR ( b_1_1_t_0 , b_1_2_t_0 )
 GC31: b_2_t_0 = AND ( b_2_1_t_0 , b_2_2_t_0 )
 GC32: b_t_0 = AND ( b_1_t_0 , b_2_t_0 )
End
